\ENCODING=ISO-8859-1
\Problem name: IloCplex

Maximize
 obj1:
Subject To
 c1:    <= 1
 c2:    <= 1
 c3:    <= 1
 c4:    <= 1
 c5:    <= 1
 c6:    <= 1
 c7:    <= 1
 c8:    <= 1
 c9:    <= 1
 c10:   <= 1
 c11:   <= 1
 c12:   <= 1
 c13:   <= 1
 c14:   <= 1
 c15:   <= 1
 c16:   <= 1
 c17:   <= 1
 c18:   <= 1
 c19:   <= 1
 c20:   <= 1
 c21:   <= 1
 c22:   <= 1
 c23:   <= 1
 c24:   <= 1
 c25:   <= 1
 c26:   <= 1
 c27:   <= 1
 c28:   <= 1
 c29:   <= 1
 c30:   <= 1
 c31:   <= 1
 c32:   <= 1
 c33:   <= 1
 c34:   <= 1
 c35:   <= 1
 c36:   <= 1
 c37:   <= 1
 c38:   <= 1
 c39:   <= 1
 c40:   <= 1
 c41:   <= 1
 c42:   <= 1
 c43:   <= 1
 c44:   <= 1
 c45:   <= 1
 c46:   <= 1
 c47:   <= 1
 c48:   <= 1
 c49:   <= 1
 c50:   <= 1
 c51:   <= 1
 c52:   <= 1
 c53:   <= 1
 c54:   <= 1
 c55:   <= 1
 c56:   <= 1
 c57:   <= 1
 c58:   <= 1
 c59:   <= 1
 c60:   <= 1
 c61:   <= 1
 c62:   <= 1
 c63:   <= 1
 c64:   <= 1
 c65:   <= 1
 c66:   <= 1
 c67:   <= 1
 c68:   <= 1
 c69:   <= 1
 c70:   <= 1
 c71:   <= 1
 c72:   <= 1
 c73:   <= 1
 c74:   <= 1
 c75:   <= 1
 c76:   <= 1
 c77:   <= 1
 c78:   <= 1
 c79:   <= 1
 c80:   <= 1
 c81:   <= 1
 c82:   <= 1
 c83:   <= 1
 c84:   <= 1
 c85:   <= 1
 c86:   <= 1
 c87:   <= 1
 c88:   <= 1
 c89:   <= 1
 c90:   <= 1
 c91:   <= 1
 c92:   <= 1
 c93:   <= 1
 c94:   <= 1
 c95:   <= 1
 c96:   <= 1
 c97:   <= 1
 c98:   <= 1
 c99:   <= 1
 c100:  <= 1
 c101:  <= 1
 c102:  <= 1
 c103:  <= 1
 c104:  <= 1
 c105:  <= 1
 c106:  <= 1
 c107:  <= 1
 c108:  <= 1
 c109:  <= 1
 c110:  <= 1
 c111:  <= 1
 c112:  <= 1
 c113:  <= 1
 c114:  <= 1
 c115:  <= 1
 c116:  <= 1
 c117:  <= 1
 c118:  <= 1
 c119:  <= 1
 c120:  <= 1
 c121:  <= 1
 c122:  <= 1
 c123:  <= 1
 c124:  <= 1
 c125:  <= 1
 c126:  <= 1
 c127:  <= 1
 c128:  <= 1
 c129:  <= 1
 c130:  <= 1
 c131:  <= 1
 c132:  <= 1
 c133:  <= 1
 c134:  <= 1
 c135:  <= 1
 c136:  <= 1
 c137:  <= 1
 c138:  <= 1
 c139:  <= 1
 c140:  <= 1
 c141:  <= 1
 c142:  <= 1
 c143:  <= 1
 c144:  <= 1
 c145:  <= 1
 c146:  <= 1
 c147:  <= 1
 c148:  <= 1
 c149:  <= 1
 c150:  <= 1
 c151:  <= 1
 c152:  <= 1
 c153:  <= 1
 c154:  <= 1
 c155:  <= 1
 c156:  <= 1
 c157:  <= 1
 c158:  <= 1
 c159:  <= 1
 c160:  <= 1
 c161:  <= 1
 c162:  <= 1
 c163:  <= 1
 c164:  <= 1
 c165:  <= 1
 c166:  <= 1
 c167:  <= 1
 c168:  <= 1
 c169:  <= 1
 c170:  <= 1
 c171:  <= 1
 c172:  <= 1
 c173:  <= 1
 c174:  <= 1
 c175:  <= 1
 c176:  <= 1
 c177:  <= 1
 c178:  <= 1
 c179:  <= 1
 c180:  <= 1
 c181:  <= 1
 c182:  <= 1
 c183:  <= 1
 c184:  <= 1
 c185:  <= 1
 c186:  <= 1
 c187:  <= 1
 c188:  <= 1
 c189:  <= 1
 c190:  <= 1
 c191:  <= 1
 c192:  <= 1
 c193:  <= 1
 c194:  <= 1
 c195:  <= 1
 c196:  <= 1
 c197:  <= 1
 c198:  <= 1
 c199:  <= 1
 c200:  <= 1
 c201:  <= 1
 c202:  <= 1
 c203:  <= 1
 c204:  <= 1
 c205:  <= 1
 c206:  <= 1
 c207:  <= 1
 c208:  <= 1
 c209:  <= 1
 c210:  <= 1
 c211:  <= 1
 c212:  <= 1
 c213:  <= 1
 c214:  <= 1
 c215:  <= 1
 c216:  <= 1
 c217:  <= 1
 c218:  <= 1
 c219:  <= 1
 c220:  <= 1
 c221:  <= 1
 c222:  <= 1
 c223:  <= 1
 c224:  <= 1
 c225:  <= 1
 c226:  <= 1
 c227:  <= 1
 c228:  <= 1
 c229:  <= 1
 c230:  <= 1
 c231:  <= 1
 c232:  <= 1
 c233:  <= 1
 c234:  <= 1
 c235:  <= 1
 c236:  <= 1
 c237:  <= 1
 c238:  <= 1
 c239:  <= 1
 c240:  <= 1
 c241:  <= 1
 c242:  <= 1
 c243:  <= 1
 c244:  <= 1
 c245:  <= 1
 c246:  <= 1
 c247:  <= 1
 c248:  <= 1
 c249:  <= 1
 c250:  <= 1
 c251:  <= 1
 c252:  <= 1
 c253:  <= 1
 c254:  <= 1
 c255:  <= 1
 c256:  <= 1
 c257:  <= 1
 c258:  <= 1
 c259:  <= 1
 c260:  <= 1
 c261:  <= 1
 c262:  <= 1
 c263:  <= 1
 c264:  <= 1
 c265:  <= 1
 c266:  <= 1
 c267:  <= 1
 c268:  <= 1
 c269:  <= 1
 c270:  <= 1
 c271:  <= 1
 c272:  <= 1
 c273:  <= 1
 c274:  <= 1
 c275:  <= 1
 c276:  <= 1
 c277:  <= 1
 c278:  <= 1
 c279:  <= 1
 c280:  <= 1
 c281:  <= 1
 c282:  <= 1
 c283:  <= 1
 c284:  <= 1
 c285:  <= 1
 c286:  <= 1
 c287:  <= 1
 c288:  <= 1
 c289:  <= 1
 c290:  <= 1
 c291:  <= 1
 c292:  <= 1
 c293:  <= 1
 c294:  <= 1
 c295:  <= 1
 c296:  <= 1
 c297:  <= 1
 c298:  <= 1
 c299:  <= 1
 c300:  <= 1
 c301:  <= 1
 c302:  <= 1
 c303:  <= 1
 c304:  <= 1
 c305:  <= 1
 c306:  <= 1
 c307:  <= 1
 c308:  <= 1
 c309:  <= 1
 c310:  <= 1
 c311:  <= 1
 c312:  <= 1
 c313:  <= 1
 c314:  <= 1
 c315:  <= 1
 c316:  <= 1
 c317:  <= 1
 c318:  <= 1
 c319:  <= 1
 c320:  <= 1
 c321:  <= 1
 c322:  <= 1
 c323:  <= 1
 c324:  <= 1
 c325:  <= 1
 c326:  <= 1
 c327:  <= 1
 c328:  <= 1
 c329:  <= 1
 c330:  <= 1
 c331:  <= 1
 c332:  <= 1
 c333:  <= 1
 c334:  <= 1
 c335:  <= 1
 c336:  <= 1
 c337:  <= 1
 c338:  <= 1
 c339:  <= 1
 c340:  <= 1
 c341:  <= 1
 c342:  <= 1
 c343:  <= 1
 c344:  <= 1
 c345:  <= 1
 c346:  <= 1
 c347:  <= 1
 c348:  <= 1
 c349:  <= 1
 c350:  <= 1
 c351:  <= 1
 c352:  <= 1
 c353:  <= 1
 c354:  <= 1
 c355:  <= 1
 c356:  <= 1
 c357:  <= 1
 c358:  <= 1
 c359:  <= 1
 c360:  <= 1
 c361:  <= 1
 c362:  <= 1
 c363:  <= 1
 c364:  <= 1
 c365:  <= 1
 c366:  <= 1
 c367:  <= 1
 c368:  <= 1
 c369:  <= 1
 c370:  <= 1
 c371:  <= 1
 c372:  <= 1
 c373:  <= 1
 c374:  <= 1
 c375:  <= 1
 c376:  <= 1
 c377:  <= 1
 c378:  <= 1
 c379:  <= 1
 c380:  <= 1
 c381:  <= 1
 c382:  <= 1
 c383:  <= 1
 c384:  <= 1
 c385:  <= 1
 c386:  <= 1
 c387:  <= 1
 c388:  <= 1
 c389:  <= 1
 c390:  <= 1
 c391:  <= 1
 c392:  <= 1
 c393:  <= 1
 c394:  <= 1
 c395:  <= 1
 c396:  <= 1
 c397:  <= 1
 c398:  <= 1
 c399:  <= 1
 c400:  <= 1
 c401:  <= 1
 c402:  <= 1
 c403:  <= 1
 c404:  <= 1
 c405:  <= 1
 c406:  <= 1
 c407:  <= 1
 c408:  <= 1
 c409:  <= 1
 c410:  <= 1
 c411:  <= 1
 c412:  <= 1
 c413:  <= 1
 c414:   = 1
 c415:   = 1
 c416:   = 1
 c417:   = 1
 c418:   = 1
 c419:   = 1
 c420:   = 1
 c421:   = 1
 c422:   = 1
 c423:   = 1
 c424:   = 1
 c425:   = 1
 c426:   = 1
 c427:   = 1
 c428:   = 1
 c429:   = 1
 c430:   = 1
 c431:   = 1
 c432:   = 1
 c433:   = 1
 c434:   = 1
 c435:   = 1
 c436:   = 1
 c437:   = 1
 c438:   = 1
 c439:   = 1
 c440:   = 1
 c441:   = 1
 c442:   = 1
 c443:   = 1
 c444:   = 1
 c445:   = 1
 c446:   = 1
 c447:   = 1
 c448:   = 1
 c449:   = 1
 c450:   = 1
 c451:   = 1
 c452:   = 1
 c453:   = 1
 c454:   = 1
 c455:   = 1
 c456:   = 1
 c457:   = 1
 c458:   = 1
 c459:   = 1
 c460:   = 1
 c461:   = 1
 c462:   = 1
 c463:   = 1
 c464:   = 1
 c465:   = 1
 c466:   = 1
 c467:   = 1
 c468:   = 1
 c469:   = 1
 c470:   = 1
 c471:   = 1
 c472:   = 1
 c473:   = 1
 c474:   = 1
 c475:   = 1
 c476:   = 1
 c477:   = 1
 c478:   = 1
 c479:   = 1
 c480:   = 1
 c481:   = 1
 c482:   = 1
 c483:   = 1
 c484:   = 1
 c485:   = 1
 c486:   = 1
 c487:   = 1
 c488:   = 1
 c489:   = 1
 c490:   = 1
 c491:   = 1
 c492:   = 1
 c493:   = 1
 c494:   = 1
 c495:   = 1
 c496:   = 1
 c497:   = 1
 c498:   = 1
 c499:   = 1
 c500:   = 1
 c501:   = 1
 c502:   = 1
 c503:   = 1
 c504:   = 1
 c505:   = 1
 c506:   = 1
 c507:   = 1
 c508:   = 1
 c509:   = 1
 c510:   = 1
 c511:   = 1
 c512:   = 1
 c513:   = 1
 c514:   = 1
 c515:   = 1
 c516:   = 1
 c517:   = 1
 c518:   = 1
 c519:   = 1
 c520:   = 1
 c521:   = 1
 c522:   = 1
 c523:   = 1
 c524:   = 1
 c525:   = 1
 c526:   = 1
 c527:   = 1
 c528:   = 1
 c529:   = 1
 c530:   = 1
 c531:   = 1
 c532:   = 1
 c533:   = 1
 c534:   = 1
 c535:   = 1
 c536:   = 1
 c537:   = 1
 c538:   = 1
 c539:   = 1
 c540:   = 1
 c541:   = 1
 c542:   = 1
 c543:   = 1
 c544:   = 1
 c545:   = 1
 c546:   = 1
 c547:   = 1
 c548:   = 1
 c549:   = 1
 c550:   = 1
 c551:   = 1
 c552:   = 1
 c553:   = 1
 c554:   = 1
 c555:   = 1
 c556:   = 1
 c557:   = 1
 c558:   = 1
 c559:   = 1
 c560:   = 1
 c561:   = 1
 c562:   = 1
 c563:   = 1
 c564:   = 1
 c565:   = 1
 c566:   = 1
 c567:   = 1
 c568:   = 1
 c569:   = 1
 c570:   = 1
 c571:   = 1
 c572:   = 1
 c573:   = 1
 c574:   = 1
 c575:   = 1
 c576:   = 1
 c577:   = 1
 c578:   = 1
 c579:   = 1
 c580:   = 1
 c581:   = 1
 c582:   = 1
 c583:   = 1
 c584:   = 1
 c585:   = 1
 c586:   = 1
 c587:   = 1
 c588:   = 1
 c589:   = 1
 c590:   = 1
 c591:   = 1
 c592:   = 1
 c593:   = 1
 c594:   = 1
 c595:   = 1
 c596:   = 1
 c597:   = 1
 c598:   = 1
 c599:   = 1
 c600:   = 1
 c601:   = 1
 c602:   = 1
 c603:   = 1
 c604:   = 1
 c605:   = 1
 c606:   = 1
 c607:   = 1
 c608:   = 1
 c609:   = 1
 c610:   = 1
 c611:   = 1
 c612:   = 1
 c613:   = 1
 c614:   = 1
 c615:   = 1
 c616:   = 1
 c617:   = 1
 c618:   = 1
 c619:   = 1
 c620:   = 1
 c621:   = 1
 c622:   = 1
 c623:   = 1
 c624:   = 1
 c625:   = 1
 c626:   = 1
 c627:   = 1
 c628:   = 1
 c629:   = 1
 c630:   = 1
 c631:   = 1
 c632:   = 1
 c633:   = 1
 c634:   = 1
 c635:   = 1
 c636:   = 1
 c637:   = 1
 c638:   = 1
 c639:   = 1
 c640:   = 1
 c641:   = 1
 c642:   = 1
 c643:   = 1
 c644:   = 1
 c645:   = 1
 c646:   = 1
 c647:   = 1
 c648:   = 1
 c649:   = 1
 c650:   = 1
 c651:   = 1
 c652:   = 1
 c653:   = 1
 c654:   = 1
 c655:   = 1
 c656:   = 1
 c657:   = 1
 c658:   = 1
 c659:   = 1
 c660:   = 1
 c661:   = 1
 c662:   = 1
 c663:   = 1
 c664:   = 1
 c665:   = 1
 c666:   = 1
 c667:   = 1
 c668:   = 1
 c669:   = 1
 c670:   = 1
 c671:   = 1
 c672:   = 1
 c673:   = 1
 c674:   = 1
 c675:   = 1
 c676:   = 1
 c677:   = 1
 c678:   = 1
 c679:   = 1
 c680:   = 1
 c681:   = 1
 c682:   = 1
 c683:   = 1
 c684:   = 1
 c685:   = 1
 c686:   = 1
 c687:   = 1
 c688:   = 1
 c689:   = 1
 c690:   = 1
 c691:   = 1
 c692:   = 1
 c693:   = 1
 c694:   = 1
 c695:   = 1
 c696:   = 1
 c697:   = 1
 c698:   = 1
 c699:   = 1
 c700:   = 1
 c701:   = 1
 c702:   = 1
 c703:   = 1
 c704:   = 1
 c705:   = 1
 c706:   = 1
 c707:   = 1
 c708:   = 1
 c709:   = 1
 c710:   = 1
 c711:   = 1
 c712:   = 1
 c713:   = 1
 c714:   = 1
 c715:   = 1
 c716:   = 1
 c717:   = 1
 c718:   = 1
 c719:   = 1
 c720:   = 1
 c721:   = 1
 c722:   = 1
 c723:   = 1
 c724:   = 1
 c725:   = 1
 c726:   = 1
 c727:   = 1
 c728:   = 1
 c729:   = 1
 c730:   = 1
 c731:   = 1
 c732:   = 1
 c733:   = 1
 c734:   = 1
 c735:   = 1
 c736:   = 1
 c737:   = 1
 c738:   = 1
 c739:   = 1
 c740:   = 1
 c741:   = 1
 c742:   = 1
 c743:   = 1
 c744:   = 1
 c745:   = 1
 c746:   = 1
 c747:   = 1
 c748:   = 1
 c749:   = 1
 c750:   = 1
 c751:   = 1
 c752:   = 1
 c753:   = 1
 c754:   = 1
 c755:   = 1
 c756:   = 1
 c757:   = 1
 c758:   = 1
 c759:   = 1
 c760:   = 1
 c761:   = 1
 c762:   = 1
 c763:   = 1
 c764:   = 1
 c765:   = 1
 c766:   = 1
 c767:   = 1
 c768:   = 1
 c769:   = 1
 c770:   = 1
 c771:   = 1
 c772:   = 1
 c773:   = 1
 c774:   = 1
 c775:   = 1
 c776:   = 1
 c777:   = 1
 c778:   = 1
 c779:   = 1
 c780:   = 1
 c781:   = 1
 c782:   = 1
 c783:   = 1
 c784:   = 1
 c785:   = 1
 c786:   = 1
 c787:   = 1
 c788:   = 1
 c789:   = 1
 c790:   = 1
 c791:   = 1
 c792:   = 1
 c793:   = 1
 c794:   = 1
 c795:   = 1
 c796:   = 1
 c797:   = 1
 c798:   = 1
 c799:   = 1
 c800:   = 1
 c801:   = 1
 c802:   = 1
 c803:   = 1
 c804:   = 1
 c805:   = 1
 c806:   = 1
 c807:   = 1
 c808:   = 1
 c809:   = 1
 c810:   = 1
 c811:   = 1
 c812:   = 1
 c813:   = 1
 c814:   = 1
 c815:   = 1
 c816:   = 1
 c817:   = 1
 c818:   = 1
 c819:   = 1
 c820:   = 1
 c821:   = 1
 c822:   = 1
 c823:   = 1
 c824:   = 1
 c825:   = 1
 c826:   = 1
 c827:   = 1
 c828:   = 1
 c829:   = 1
 c830:   = 1
 c831:   = 1
 c832:   = 1
 c833:   = 1
 c834:   = 1
 c835:   = 1
 c836:   = 1
 c837:   = 1
 c838:   = 1
 c839:   = 1
 c840:   = 1
 c841:   = 1
 c842:   = 1
 c843:   = 1
 c844:   = 1
 c845:   = 1
 c846:   = 1
 c847:   = 1
 c848:   = 1
 c849:   = 1
 c850:   = 1
 c851:   = 1
 c852:   = 1
 c853:   = 1
 c854:   = 1
 c855:   = 1
 c856:   = 1
 c857:   = 1
 c858:   = 1
 c859:   = 1
 c860:   = 1
 c861:   = 1
 c862:   = 1
 c863:   = 1
 c864:   = 1
 c865:   = 1
 c866:   = 1
 c867:   = 1
 c868:   = 1
 c869:   = 1
 c870:   = 1
 c871:   = 1
 c872:   = 1
 c873:   = 1
 c874:   = 1
 c875:   = 1
 c876:   = 1
 c877:   = 1
 c878:   = 1
 c879:   = 1
 c880:   = 1
 c881:   = 1
 c882:   = 1
 c883:   = 1
 c884:   = 1
 c885:   = 1
 c886:   = 1
 c887:   = 1
 c888:   = 1
 c889:   = 1
 c890:   = 1
 c891:   = 1
 c892:   = 1
 c893:   = 1
 c894:   = 1
 c895:   = 1
 c896:   = 1
 c897:   = 1
 c898:   = 1
 c899:   = 1
 c900:   = 1
 c901:   = 1
 c902:   = 1
 c903:   = 1
 c904:   = 1
 c905:   = 1
 c906:   = 1
 c907:   = 1
 c908:   = 1
 c909:   = 1
 c910:   = 1
 c911:   = 1
 c912:   = 1
 c913:   = 1
 c914:   = 1
 c915:   = 1
 c916:   = 1
 c917:   = 1
 c918:   = 1
 c919:   = 1
 c920:   = 1
 c921:   = 1
 c922:   = 1
 c923:   = 1
 c924:   = 1
 c925:   = 1
 c926:   = 1
 c927:   = 1
 c928:   = 1
 c929:   = 1
 c930:   = 1
 c931:   = 1
 c932:   = 1
 c933:   = 1
 c934:   = 1
 c935:   = 1
 c936:   = 1
 c937:   = 1
 c938:   = 1
 c939:   = 1
 c940:   = 1
 c941:   = 1
 c942:   = 1
 c943:   = 1
 c944:   = 1
 c945:   = 1
 c946:   = 1
 c947:   = 1
 c948:   = 1
 c949:   = 1
 c950:   = 1
 c951:   = 1
 c952:   = 1
 c953:   = 1
 c954:   = 1
 c955:   = 1
 c956:   = 1
 c957:   = 1
 c958:   = 1
 c959:   = 1
 c960:   = 1
 c961:   = 1
 c962:   = 1
 c963:   = 1
 c964:   = 1
 c965:   = 1
 c966:   = 1
 c967:   = 1
 c968:   = 1
 c969:   = 1
 c970:   = 1
 c971:   = 1
 c972:   = 1
 c973:   = 1
 c974:   = 1
 c975:   = 1
 c976:   = 1
 c977:   = 1
 c978:   = 1
 c979:   = 1
 c980:   = 1
 c981:   = 1
 c982:   = 1
 c983:   = 1
 c984:   = 1
 c985:   = 1
 c986:   = 1
 c987:   = 1
 c988:   = 1
 c989:   = 1
 c990:   = 1
 c991:   = 1
 c992:   = 1
 c993:   = 1
 c994:   = 1
 c995:   = 1
 c996:   = 1
 c997:   = 1
 c998:   = 1
 c999:   = 1
 c1000:  = 1
 c1001:  = 1
 c1002:  = 1
 c1003:  = 1
 c1004:  = 1
 c1005:  = 1
 c1006:  = 1
 c1007:  = 1
 c1008:  = 1
 c1009:  = 1
 c1010:  = 1
 c1011:  = 1
 c1012:  = 1
 c1013:  = 1
 c1014:  = 1
 c1015:  = 1
 c1016:  = 1
 c1017:  = 1
 c1018:  = 1
 c1019:  = 1
 c1020:  = 1
 c1021:  = 1
 c1022:  = 1
 c1023:  = 1
 c1024:  = 1
 c1025:  = 1
 c1026:  = 1
 c1027:  = 1
 c1028:  = 1
 c1029:  = 1
 c1030:  = 1
 c1031:  = 1
 c1032:  = 1
 c1033:  = 1
 c1034:  = 1
 c1035:  = 1
 c1036:  = 1
 c1037:  = 1
 c1038:  = 1
 c1039:  = 1
 c1040:  = 1
 c1041:  = 1
 c1042:  = 1
 c1043:  = 1
 c1044:  = 1
 c1045:  = 1
 c1046:  = 1
 c1047:  = 1
 c1048:  = 1
 c1049:  = 1
 c1050:  = 1
 c1051:  = 1
 c1052:  = 1
 c1053:  = 1
 c1054:  = 1
 c1055:  = 1
 c1056:  = 1
 c1057:  = 1
 c1058:  = 1
 c1059:  = 1
 c1060:  = 1
 c1061:  = 1
 c1062:  = 1
 c1063:  = 1
 c1064:  = 1
 c1065:  = 1
 c1066:  = 1
 c1067:  = 1
 c1068:  = 1
 c1069:  = 1
 c1070:  = 1
 c1071:  = 1
 c1072:  = 1
 c1073:  = 1
 c1074:  = 1
 c1075:  = 1
 c1076:  = 1
 c1077:  = 1
 c1078:  = 1
 c1079:  = 1
 c1080:  = 1
 c1081:  = 1
 c1082:  = 1
 c1083:  = 1
 c1084:  = 1
 c1085:  = 1
 c1086:  = 1
 c1087:  = 1
 c1088:  = 1
 c1089:  = 1
 c1090:  = 1
 c1091:  = 1
 c1092:  = 1
 c1093:  = 1
 c1094:  = 1
 c1095:  = 1
 c1096:  = 1
 c1097:  = 1
 c1098:  = 1
 c1099:  = 1
 c1100:  = 1
 c1101:  = 1
 c1102:  = 1
 c1103:  = 1
 c1104:  = 1
 c1105:  = 1
 c1106:  = 1
 c1107:  = 1
 c1108:  = 1
 c1109:  = 1
 c1110:  = 1
 c1111:  = 1
 c1112:  = 1
 c1113:  = 1
 c1114:  = 1
 c1115:  = 1
 c1116:  = 1
 c1117:  = 1
 c1118:  = 1
 c1119:  = 1
 c1120:  = 1
 c1121:  = 1
 c1122:  = 1
 c1123:  = 1
 c1124:  = 1
 c1125:  = 1
 c1126:  = 1
 c1127:  = 1
 c1128:  = 1
 c1129:  = 1
 c1130:  = 1
 c1131:  = 1
 c1132:  = 1
 c1133:  = 1
 c1134:  = 1
 c1135:  = 1
 c1136:  = 1
 c1137:  = 1
 c1138:  = 1
 c1139:  = 1
 c1140:  = 1
 c1141:  = 1
 c1142:  = 1
 c1143:  = 1
 c1144:  = 1
 c1145:  = 1
 c1146:  = 1
 c1147:  = 1
 c1148:  = 1
 c1149:  = 1
 c1150:  = 1
 c1151:  = 1
 c1152:  = 1
 c1153:  = 1
 c1154:  = 1
 c1155:  = 1
 c1156:  = 1
 c1157:  = 1
 c1158:  = 1
 c1159:  = 1
 c1160:  = 1
 c1161:  = 1
 c1162:  = 1
 c1163:  = 1
 c1164:  = 1
 c1165:  = 1
 c1166:  = 1
 c1167:  = 1
 c1168:  = 1
 c1169:  = 1
 c1170:  = 1
 c1171:  = 1
 c1172:  = 1
 c1173:  = 1
 c1174:  = 1
 c1175:  = 1
 c1176:  = 1
 c1177:  = 1
 c1178:  = 1
 c1179:  = 1
 c1180:  = 1
 c1181:  = 1
 c1182:  = 1
 c1183:  = 1
 c1184:  = 1
 c1185:  = 1
 c1186:  = 1
 c1187:  = 1
 c1188:  = 1
 c1189:  = 1
 c1190:  = 1
 c1191:  = 1
 c1192:  = 1
 c1193:  = 1
 c1194:  = 1
 c1195:  = 1
 c1196:  = 1
 c1197:  = 1
 c1198:  = 1
 c1199:  = 1
 c1200:  = 1
 c1201:  = 1
 c1202:  = 1
 c1203:  = 1
 c1204:  = 1
 c1205:  = 1
 c1206:  = 1
 c1207:  = 1
 c1208:  = 1
 c1209:  = 1
 c1210:  = 1
 c1211:  = 1
 c1212:  = 1
 c1213:  = 1
 c1214:  = 1
 c1215:  = 1
 c1216:  = 1
 c1217:  = 1
 c1218:  = 1
 c1219:  = 1
 c1220:  = 1
 c1221:  = 1
 c1222:  = 1
 c1223:  = 1
 c1224:  = 1
 c1225:  = 1
 c1226:  = 1
 c1227:  = 1
 c1228:  = 1
 c1229:  = 1
 c1230:  = 1
 c1231:  = 1
 c1232:  = 1
 c1233:  = 1
 c1234:  = 1
 c1235:  = 1
 c1236:  = 1
 c1237:  = 1
 c1238:  = 1
 c1239:  = 1
 c1240:  = 1
 c1241:  = 1
 c1242:  = 1
 c1243:  = 1
 c1244:  = 1
 c1245:  = 1
 c1246:  = 1
 c1247:  = 1
 c1248:  = 1
 c1249:  = 1
 c1250:  = 1
 c1251:  = 1
 c1252:  = 1
 c1253:  = 1
 c1254:  = 1
 c1255:  = 1
 c1256:  = 1
 c1257:  = 1
 c1258:  = 1
 c1259:  = 1
 c1260:  = 1
 c1261:  = 1
 c1262:  = 1
 c1263:  = 1
 c1264:  = 1
 c1265:  = 1
 c1266:  = 1
 c1267:  = 1
 c1268:  = 1
 c1269:  = 1
 c1270:  = 1
 c1271:  = 1
 c1272:  = 1
 c1273:  = 1
 c1274:  = 1
 c1275:  = 1
 c1276:  = 1
 c1277:  = 1
 c1278:  = 1
 c1279:  = 1
 c1280:  = 1
 c1281:  = 1
 c1282:  = 1
 c1283:  = 1
 c1284:  = 1
 c1285:  = 1
 c1286:  = 1
 c1287:  = 1
 c1288:  = 1
 c1289:  = 1
 c1290:  = 1
 c1291:  = 1
 c1292:  = 1
 c1293:  = 1
 c1294:  = 1
 c1295:  = 1
 c1296:  = 1
 c1297:  = 1
 c1298:  = 1
 c1299:  = 1
 c1300:  = 1
 c1301:  = 1
 c1302:  = 1
 c1303:  = 1
 c1304:  = 1
 c1305:  = 1
 c1306:  = 1
 c1307:  = 1
 c1308:  = 1
 c1309:  = 1
 c1310:  = 1
 c1311:  = 1
 c1312:  = 1
 c1313:  = 1
 c1314:  = 1
 c1315:  = 1
 c1316:  = 1
 c1317:  = 1
 c1318:  = 1
 c1319:  = 1
 c1320:  = 1
 c1321:  = 1
 c1322:  = 1
 c1323:  = 1
 c1324:  = 1
 c1325:  = 1
 c1326:  = 1
 c1327:  = 1
 c1328:  = 1
 c1329:  = 1
 c1330:  = 1
 c1331:  = 1
 c1332:  = 1
 c1333:  = 1
 c1334:  = 1
 c1335:  = 1
 c1336:  = 1
 c1337:  = 1
 c1338:  = 1
 c1339:  = 1
 c1340:  = 1
 c1341:  = 1
 c1342:  = 1
 c1343:  = 1
 c1344:  = 1
 c1345:  = 1
 c1346:  = 1
 c1347:  = 1
 c1348:  = 1
 c1349:  = 1
 c1350:  = 1
 c1351:  = 1
 c1352:  = 1
 c1353:  = 1
 c1354:  = 1
 c1355:  = 1
 c1356:  = 1
 c1357:  = 1
 c1358:  = 1
 c1359:  = 1
 c1360:  = 1
 c1361:  = 1
 c1362:  = 1
 c1363:  = 1
 c1364:  = 1
 c1365:  = 1
 c1366:  = 1
 c1367:  = 1
 c1368:  = 1
 c1369:  = 1
 c1370:  = 1
 c1371:  = 1
 c1372:  = 1
 c1373:  = 1
 c1374:  = 1
 c1375:  = 1
 c1376:  = 1
 c1377:  = 1
 c1378:  = 1
 c1379:  = 1
 c1380:  = 1
 c1381:  = 1
 c1382:  = 1
 c1383:  = 1
 c1384:  = 1
 c1385:  = 1
 c1386:  = 1
 c1387:  = 1
 c1388:  = 1
 c1389:  = 1
 c1390:  = 1
 c1391:  = 1
 c1392:  = 1
 c1393:  = 1
 c1394:  = 1
 c1395:  = 1
 c1396:  = 1
 c1397:  = 1
 c1398:  = 1
 c1399:  = 1
 c1400:  = 1
 c1401:  = 1
 c1402:  = 1
 c1403:  = 1
 c1404:  = 1
 c1405:  = 1
 c1406:  = 1
 c1407:  = 1
 c1408:  = 1
 c1409:  = 1
 c1410:  = 1
 c1411:  = 1
 c1412:  = 1
 c1413:  = 1
 c1414:  = 1
 c1415:  = 1
 c1416:  = 1
 c1417:  = 1
 c1418:  = 1
 c1419:  = 1
 c1420:  = 1
 c1421:  = 1
 c1422:  = 1
 c1423:  = 1
 c1424:  = 1
 c1425:  = 1
 c1426:  = 1
 c1427:  = 1
 c1428:  = 1
 c1429:  = 1
 c1430:  = 1
 c1431:  = 1
 c1432:  = 1
 c1433:  = 1
 c1434:  = 1
 c1435:  = 1
 c1436:  = 1
 c1437:  = 1
 c1438:  = 1
 c1439:  = 1
 c1440:  = 1
 c1441:  = 1
 c1442:  = 1
 c1443:  = 1
 c1444:  = 1
 c1445:  = 1
 c1446:  = 1
 c1447:  = 1
 c1448:  = 1
 c1449:  = 1
 c1450:  = 1
 c1451:  = 1
 c1452:  = 1
 c1453:  = 1
 c1454:  = 1
 c1455:  = 1
 c1456:  = 1
 c1457:  = 1
 c1458:  = 1
 c1459:  = 1
 c1460:  = 1
 c1461:  = 1
 c1462:  = 1
 c1463:  = 1
 c1464:  = 1
 c1465:  = 1
 c1466:  = 1
 c1467:  = 1
 c1468:  = 1
 c1469:  = 1
 c1470:  = 1
 c1471:  = 1
 c1472:  = 1
 c1473:  = 1
 c1474:  = 1
 c1475:  = 1
 c1476:  = 1
 c1477:  = 1
 c1478:  = 1
 c1479:  = 1
 c1480:  = 1
 c1481:  = 1
 c1482:  = 1
 c1483:  = 1
 c1484:  = 1
 c1485:  = 1
 c1486:  = 1
 c1487:  = 1
 c1488:  = 1
 c1489:  = 1
 c1490:  = 1
 c1491:  = 1
 c1492:  = 1
 c1493:  = 1
 c1494:  = 1
 c1495:  = 1
 c1496:  = 1
 c1497:  = 1
 c1498:  = 1
 c1499:  = 1
 c1500:  = 1
 c1501:  = 1
 c1502:  = 1
 c1503:  = 1
 c1504:  = 1
 c1505:  = 1
 c1506:  = 1
 c1507:  = 1
 c1508:  = 1
 c1509:  = 1
 c1510:  = 1
 c1511:  = 1
 c1512:  = 1
 c1513:  = 1
 c1514:  = 1
 c1515:  = 1
 c1516:  = 1
 c1517:  = 1
 c1518:  = 1
 c1519:  = 1
 c1520:  = 1
 c1521:  = 1
 c1522:  = 1
 c1523:  = 1
 c1524:  = 1
 c1525:  = 1
 c1526:  = 1
 c1527:  = 1
 c1528:  = 1
 c1529:  = 1
 c1530:  = 1
 c1531:  = 1
 c1532:  = 1
 c1533:  = 1
 c1534:  = 1
 c1535:  = 1
 c1536:  = 1
 c1537:  = 1
 c1538:  = 1
 c1539:  = 1
 c1540:  = 1
 c1541:  = 1
 c1542:  = 1
 c1543:  = 1
 c1544:  = 1
 c1545:  = 1
 c1546:  = 1
 c1547:  = 1
 c1548:  = 1
 c1549:  = 1
 c1550:  = 1
 c1551:  = 1
 c1552:  = 1
 c1553:  = 1
 c1554:  = 1
 c1555:  = 1
 c1556:  = 1
 c1557:  = 1
 c1558:  = 1
 c1559:  = 1
 c1560:  = 1
 c1561:  = 1
 c1562:  = 1
 c1563:  = 1
 c1564:  = 1
 c1565:  = 1
 c1566:  = 1
 c1567:  = 1
 c1568:  = 1
 c1569:  = 1
 c1570:  = 1
 c1571:  = 1
 c1572:  = 1
 c1573:  = 1
 c1574:  = 1
 c1575:  = 1
 c1576:  = 1
 c1577:  = 1
 c1578:  = 1
 c1579:  = 1
 c1580:  = 1
 c1581:  = 1
 c1582:  = 1
 c1583:  = 1
 c1584:  = 1
 c1585:  = 1
 c1586:  = 1
 c1587:  = 1
 c1588:  = 1
 c1589:  = 1
 c1590:  = 1
 c1591:  = 1
 c1592:  = 1
 c1593:  = 1
 c1594:  = 1
 c1595:  = 1
 c1596:  = 1
 c1597:  = 1
 c1598:  = 1
 c1599:  = 1
 c1600:  = 1
 c1601:  = 1
 c1602:  = 1
 c1603:  = 1
 c1604:  = 1
 c1605:  = 1
 c1606:  = 1
 c1607:  = 1
 c1608:  = 1
 c1609:  = 1
 c1610:  = 1
 c1611:  = 1
 c1612:  = 1
 c1613:  = 1
 c1614:  = 1
 c1615:  = 1
 c1616:  = 1
 c1617:  = 1
 c1618:  = 1
 c1619:  = 1
 c1620:  = 1
 c1621:  = 1
 c1622:  = 1
 c1623:  = 1
 c1624:  = 1
 c1625:  = 1
 c1626:  = 1
 c1627:  = 1
 c1628:  = 1
 c1629:  = 1
 c1630:  = 1
 c1631:  = 1
 c1632:  = 1
 c1633:  = 1
 c1634:  = 1
 c1635:  = 1
 c1636:  = 1
 c1637:  = 1
 c1638:  = 1
 c1639:  = 1
 c1640:  = 1
 c1641:  = 1
 c1642:  = 1
 c1643:  = 1
 c1644:  = 1
 c1645:  = 1
 c1646:  = 1
 c1647:  = 1
 c1648:  = 1
 c1649:  = 1
 c1650:  = 1
 c1651:  = 1
 c1652:  = 1
 c1653:  = 1
 c1654:  = 1
 c1655:  = 1
 c1656:  = 1
 c1657:  = 1
 c1658:  = 1
 c1659:  = 1
 c1660:  = 1
 c1661:  = 1
 c1662:  = 1
 c1663:  = 1
 c1664:  = 1
 c1665:  = 1
 c1666:  = 1
 c1667:  = 1
 c1668:  = 1
 c1669:  = 1
 c1670:  = 1
 c1671:  = 1
 c1672:  = 1
 c1673:  = 1
 c1674:  = 1
 c1675:  = 1
 c1676:  = 1
 c1677:  = 1
 c1678:  = 1
 c1679:  = 1
 c1680:  = 1
 c1681:  = 1
 c1682:  = 1
 c1683:  = 1
 c1684:  = 1
 c1685:  = 1
 c1686:  = 1
 c1687:  = 1
 c1688:  = 1
 c1689:  = 1
 c1690:  = 1
 c1691:  = 1
 c1692:  = 1
 c1693:  = 1
 c1694:  = 1
 c1695:  = 1
 c1696:  = 1
 c1697:  = 1
 c1698:  = 1
 c1699:  = 1
 c1700:  = 1
 c1701:  = 1
 c1702:  = 1
 c1703:  = 1
 c1704:  = 1
 c1705:  = 1
 c1706:  = 1
 c1707:  = 1
 c1708:  = 1
 c1709:  = 1
 c1710:  = 1
 c1711:  = 1
 c1712:  = 1
 c1713:  = 1
 c1714:  = 1
 c1715:  = 1
 c1716:  = 1
 c1717:  = 1
 c1718:  = 1
 c1719:  = 1
 c1720:  = 1
 c1721:  = 1
 c1722:  = 1
 c1723:  = 1
 c1724:  = 1
 c1725:  = 1
 c1726:  = 1
 c1727:  = 1
 c1728:  = 1
 c1729:  = 1
 c1730:  = 1
 c1731:  = 1
 c1732:  = 1
 c1733:  = 1
 c1734:  = 1
 c1735:  = 1
 c1736:  = 1
 c1737:  = 1
 c1738:  = 1
 c1739:  = 1
 c1740:  = 1
 c1741:  = 1
 c1742:  = 1
 c1743:  = 1
 c1744:  = 1
 c1745:  = 1
 c1746:  = 1
 c1747:  = 1
 c1748:  = 1
 c1749:  = 1
 c1750:  = 1
 c1751:  = 1
 c1752:  = 1
 c1753:  = 1
 c1754:  = 1
 c1755:  = 1
 c1756:  = 1
 c1757:  = 1
 c1758:  = 1
 c1759:  = 1
 c1760:  = 1
 c1761:  = 1
 c1762:  = 1
 c1763:  = 1
 c1764:  = 1
 c1765:  = 1
 c1766:  = 1
 c1767:  = 1
 c1768:  = 1
 c1769:  = 1
 c1770:  = 1
 c1771:  = 1
 c1772:  = 1
 c1773:  = 1
 c1774:  = 1
 c1775:  = 1
 c1776:  = 1
 c1777:  = 1
 c1778:  = 1
 c1779:  = 1
 c1780:  = 1
 c1781:  = 1
 c1782:  = 1
 c1783:  = 1
 c1784:  = 1
 c1785:  = 1
 c1786:  = 1
 c1787:  = 1
 c1788:  = 1
 c1789:  = 1
 c1790:  = 1
 c1791:  = 1
 c1792:  = 1
 c1793:  = 1
 c1794:  = 1
 c1795:  = 1
 c1796:  = 1
 c1797:  = 1
 c1798:  = 1
 c1799:  = 1
 c1800:  = 1
 c1801:  = 1
 c1802:  = 1
 c1803:  = 1
 c1804:  = 1
 c1805:  = 1
 c1806:  = 1
 c1807:  = 1
 c1808:  = 1
 c1809:  = 1
 c1810:  = 1
 c1811:  = 1
 c1812:  = 1
 c1813:  = 1
 c1814:  = 1
 c1815:  = 1
 c1816:  = 1
 c1817:  = 1
 c1818:  = 1
 c1819:  = 1
 c1820:  = 1
 c1821:  = 1
 c1822:  = 1
 c1823:  = 1
 c1824:  = 1
 c1825:  = 1
 c1826:  = 1
 c1827:  = 1
 c1828:  = 1
 c1829:  = 1
 c1830:  = 1
 c1831:  = 1
 c1832:  = 1
 c1833:  = 1
 c1834:  = 1
 c1835:  = 1
 c1836:  = 1
 c1837:  = 1
 c1838:  = 1
 c1839:  = 1
 c1840:  = 1
 c1841:  = 1
 c1842:  = 1
 c1843:  = 1
 c1844:  = 1
 c1845:  = 1
 c1846:  = 1
 c1847:  = 1
 c1848:  = 1
 c1849:  = 1
 c1850:  = 1
 c1851:  = 1
 c1852:  = 1
 c1853:  = 1
 c1854:  = 1
 c1855:  = 1
 c1856:  = 1
 c1857:  = 1
 c1858:  = 1
 c1859:  = 1
 c1860:  = 1
 c1861:  = 1
 c1862:  = 1
 c1863:  = 1
 c1864:  = 1
 c1865:  = 1
 c1866:  = 1
 c1867:  = 1
 c1868:  = 1
 c1869:  = 1
 c1870:  = 1
 c1871:  = 1
 c1872:  = 1
 c1873:  = 1
 c1874:  = 1
 c1875:  = 1
 c1876:  = 1
 c1877:  = 1
 c1878:  = 1
 c1879:  = 1
 c1880:  = 1
 c1881:  = 1
 c1882:  = 1
 c1883:  = 1
 c1884:  = 1
 c1885:  = 1
 c1886:  = 1
 c1887:  = 1
 c1888:  = 1
 c1889:  = 1
 c1890:  = 1
 c1891:  = 1
 c1892:  = 1
 c1893:  = 1
 c1894:  = 1
 c1895:  = 1
 c1896:  = 1
 c1897:  = 1
 c1898:  = 1
 c1899:  = 1
 c1900:  = 1
 c1901:  = 1
 c1902:  = 1
 c1903:  = 1
 c1904:  = 1
 c1905:  = 1
 c1906:  = 1
 c1907:  = 1
 c1908:  = 1
 c1909:  = 1
 c1910:  = 1
 c1911:  = 1
 c1912:  = 1
 c1913:  = 1
 c1914:  = 1
 c1915:  = 1
 c1916:  = 1
 c1917:  = 1
 c1918:  = 1
 c1919:  = 1
 c1920:  = 1
 c1921:  = 1
 c1922:  = 1
 c1923:  = 1
 c1924:  = 1
 c1925:  = 1
 c1926:  = 1
 c1927:  = 1
 c1928:  = 1
 c1929:  = 1
 c1930:  = 1
 c1931:  = 1
 c1932:  = 1
 c1933:  = 1
 c1934:  = 1
 c1935:  = 1
 c1936:  = 1
 c1937:  = 1
 c1938:  = 1
 c1939:  = 1
 c1940:  = 1
 c1941:  = 1
 c1942:  = 1
 c1943:  = 1
 c1944:  = 1
 c1945:  = 1
 c1946:  = 1
 c1947:  = 1
 c1948:  = 1
 c1949:  = 1
 c1950:  = 1
 c1951:  = 1
 c1952:  = 1
 c1953:  = 1
 c1954:  = 1
 c1955:  = 1
 c1956:  = 1
 c1957:  = 1
 c1958:  = 1
 c1959:  = 1
 c1960:  = 1
 c1961:  = 1
 c1962:  = 1
 c1963:  = 1
 c1964:  = 1
 c1965:  = 1
 c1966:  = 1
 c1967:  = 1
 c1968:  = 1
 c1969:  = 1
 c1970:  = 1
 c1971:  = 1
 c1972:  = 1
 c1973:  = 1
 c1974:  = 1
 c1975:  = 1
 c1976:  = 1
 c1977:  = 1
 c1978:  = 1
 c1979:  = 1
 c1980:  = 1
 c1981:  = 1
 c1982:  = 1
 c1983:  = 1
 c1984:  = 1
 c1985:  = 1
 c1986:  = 1
 c1987:  = 1
 c1988:  = 1
 c1989:  = 1
 c1990:  = 1
 c1991:  = 1
 c1992:  = 1
 c1993:  = 1
 c1994:  = 1
 c1995:  = 1
 c1996:  = 1
 c1997:  = 1
 c1998:  = 1
 c1999:  = 1
 c2000:  = 1
 c2001:  = 1
 c2002:  = 1
 c2003:  = 1
 c2004:  = 1
 c2005:  = 1
 c2006:  = 1
 c2007:  = 1
 c2008:  = 1
 c2009:  = 1
 c2010:  = 1
 c2011:  = 1
 c2012:  = 1
 c2013:  = 1
 c2014:  = 1
 c2015:  = 1
 c2016:  = 1
 c2017:  = 1
 c2018:  = 1
 c2019:  = 1
 c2020:  = 1
 c2021:  = 1
 c2022:  = 1
 c2023:  = 1
 c2024:  = 1
 c2025:  = 1
 c2026:  = 1
 c2027:  = 1
 c2028:  = 1
 c2029:  = 1
 c2030:  = 1
 c2031:  = 1
 c2032:  = 1
 c2033:  = 1
 c2034:  = 1
 c2035:  = 1
 c2036:  = 1
 c2037:  = 1
 c2038:  = 1
 c2039:  = 1
 c2040:  = 1
 c2041:  = 1
 c2042:  = 1
 c2043:  = 1
 c2044:  = 1
 c2045:  = 1
 c2046:  = 1
 c2047:  = 1
 c2048:  = 1
 c2049:  = 1
 c2050:  = 1
 c2051:  = 1
 c2052:  = 1
 c2053:  = 1
 c2054:  = 1
 c2055:  = 1
 c2056:  = 1
 c2057:  = 1
 c2058:  = 1
 c2059:  = 1
 c2060:  = 1
 c2061:  = 1
 c2062:  = 1
 c2063:  = 1
 c2064:  = 1
 c2065:  = 1
 c2066: >= 0
 c2067: <= 0
 c2068: >= 0
 c2069: <= 0
 c2070: >= 0
 c2071: <= 0
 c2072: >= 0
 c2073: <= 0
End
